300
[30,31,32,34,35,36,40,44,47,55,56,59,61,63,65,68,72,73,77,78,79,83,89,90,93,96,100,102,106,108,110,112,119,121,127,130,134,138,139,140,145,146,147,150,152,155,156,160,161,162,163,164,165,174,177,178,187,188,189,190,193,197,199,202,204,207,208,209,211,212,216,218,221,223,224,225,229,230,231,233,235,236,239,240]
[1,1,2,1,1,1,1,1,1,1,1,1,1,2,1,1,1,1,1,1,1,1,1,1,1,1,1,2,3,2,1,1,1,1,1,2,1,1,1,1,1,1,1,1,1,1,1,1,1,2,2,1,1,1,3,1,2,1,1,1,1,2,1,1,2,1,1,1,1,1,2,1,1,1,1,1,2,1,1,1,1,1,1,1]
